556 539
89 522 
92 523 
82 524 
522 203 83 
215 525 
237 526 
286 527 
306 528 
334 529 
355 530 
375 531 
383 532 
390 533 
397 534 
404 535 
414 536 
421 537 
430 538 
439 539 
455 540 
461 541 
465 542 
469 543 
474 544 
479 545 
483 546 
486 547 
489 548 
493 549 
497 550 
501 551 
505 552 
509 553 
513 554 
517 555 
521 556 
54 469 161 58 
55 465 165 58 
56 521 171 58 
57 517 435 176 58 
58 74 
59 486 196 63 
60 483 153 63 
61 479 63 
62 474 150 63 
63 74 
64 497 393 109 99 68 
65 493 386 243 103 68 
66 489 379 97 95 68 
67 461 207 96 93 68 
68 74 
69 513 426 115 73 
70 509 417 117 73 
71 505 410 122 73 
72 501 400 126 73 
73 74 
74 91 82 
75 216 211 206 203 76 
76 208 84 77 
77 92 82 
78 211 208 86 79 
79 518 514 510 506 502 487 484 471 458 80 
80 467 463 454 438 429 420 413 403 396 81 
81 82 
83 456 440 356 335 307 287 238 218 206 84 
85 90 89 
86 519 498 494 490 480 476 470 466 462 87 
87 389 382 374 354 333 305 285 236 214 88 
88 89 
90 92 
91 92 
94 487 381 240 97 95 
95 244 98 
96 241 98 
97 98 
98 384 222 108 
99 256 110 102 
100 495 101 
101 102 
102 391 247 107 
103 244 110 106 
104 491 105 
105 106 
106 384 239 107 
107 222 108 
108 112 
109 110 
110 219 111 
111 112 
112 398 294 132 
113 511 114 
114 134 116 
115 272 133 116 
116 422 264 121 
117 253 133 120 
118 507 119 
119 254 120 
120 415 249 121 
121 288 224 140 131 
122 253 136 125 
123 503 124 
124 138 125 
125 406 405 249 130 
126 129 
127 499 137 128 
128 257 129 
129 398 247 130 
130 222 219 131 
131 293 132 
132 432 141 
133 134 
134 289 227 135 
135 140 
136 138 
137 257 138 
138 289 220 139 
139 140 
140 432 141 
141 431 184 
142 477 145 143 
143 194 144 
144 362 146 
145 194 146 
146 357 326 147 
147 336 327 152 
148 472 149 
149 319 194 151 
150 318 151 
151 336 298 297 152 
152 342 160 
153 362 198 156 
154 481 155 
155 156 
156 362 357 346 157 
157 348 159 
158 368 197 159 
159 195 160 
160 193 183 
161 189 164 
162 467 163 
163 191 164 
164 308 278 277 169 
165 190 168 
166 463 167 
167 271 168 
168 261 230 169 
169 336 188 170 
170 182 
171 270 185 174 
172 519 173 
173 186 174 
174 449 175 
175 262 224 181 
176 272 185 179 
177 515 178 
178 273 179 
179 431 180 
180 432 265 224 181 
181 227 182 
182 293 290 183 
183 184 
184 231 216 206 202 
185 186 
186 227 187 
187 188 
188 192 
189 319 191 
190 271 191 
191 342 192 
192 291 193 
193 200 
194 343 195 
195 199 
196 198 
197 367 198 
198 199 
199 200 
200 201 
201 231 216 206 202 
202 434 425 416 409 399 392 385 378 205 
203 231 204 
204 434 425 416 409 399 392 385 378 205 
205 207 
206 435 426 417 410 400 393 386 379 207 
207 210 
208 452 436 427 418 411 401 209 
209 394 387 380 372 352 331 303 283 234 210 
210 215 
211 453 437 428 419 412 402 212 
212 395 388 381 373 353 332 304 284 235 213 
213 214 
214 215 
216 456 217 
217 440 356 335 307 287 238 218 
218 233 
219 220 
220 221 
221 223 
222 223 
223 415 338 226 
224 337 225 
225 226 
226 229 
227 341 228 
228 229 
229 230 
231 450 370 350 329 301 281 232 
232 233 
233 234 
234 237 
235 236 
236 237 
238 282 
239 441 242 
240 441 376 242 
241 443 376 242 
242 246 
243 244 
244 445 245 
245 246 
246 391 313 252 
247 445 313 248 
248 442 251 
249 259 250 
250 311 251 
251 252 
252 423 260 
253 254 
254 316 255 
255 259 
256 257 
257 446 407 314 258 
258 259 
259 423 260 
260 422 360 269 
261 262 
262 310 274 263 
263 267 
264 423 265 
265 316 311 266 
266 267 
267 268 
268 359 269 
269 279 276 
270 271 
271 321 274 
272 273 
273 316 274 
274 361 275 
275 279 276 
276 277 
277 280 
278 279 
279 280 
281 282 
282 283 
283 286 
284 285 
285 286 
287 302 
288 289 
289 290 
290 292 
291 292 
292 299 296 
293 295 
294 295 
295 299 296 
296 297 
297 300 
298 308 299 
299 300 
301 302 
302 303 
303 306 
304 305 
305 306 
307 330 
308 358 322 309 
309 310 
310 317 312 
311 447 443 312 
312 315 
313 407 314 
314 405 315 
315 327 325 
316 444 317 
317 323 
318 319 
319 320 
320 363 322 
321 322 
322 323 
323 324 
324 327 325 
325 326 
326 328 
327 328 
329 330 
330 331 
331 334 
332 333 
333 334 
335 351 
336 340 337 
337 338 
338 348 339 
339 346 
340 341 
341 345 
342 344 
343 344 
344 345 
345 347 346 
346 349 
347 348 
348 349 
350 351 
351 352 
352 355 
353 354 
354 355 
356 371 
357 363 358 
358 361 359 
359 360 
360 368 366 
361 364 
362 363 
363 364 
364 365 
365 368 366 
366 367 
367 369 
368 369 
370 371 
371 372 
372 375 
373 374 
374 375 
376 377 
378 379 
379 380 
380 383 
381 382 
382 383 
385 386 
386 387 
387 390 
388 389 
389 390 
392 393 
393 394 
394 397 
395 396 
396 397 
399 400 
400 401 
401 404 
402 403 
403 404 
405 408 
406 407 
407 408 
409 410 
410 411 
411 414 
412 413 
413 414 
416 417 
417 418 
418 421 
419 420 
420 421 
422 424 
423 424 
425 426 
426 427 
427 430 
428 429 
429 430 
431 433 
432 433 
434 435 
435 436 
436 439 
437 438 
438 439 
440 451 
441 442 
442 443 
443 448 
444 448 
445 446 
446 447 
447 448 
448 449 
450 451 
451 452 
452 455 
453 454 
454 455 
456 520 516 475 460 457 
457 521 517 513 509 505 501 473 468 464 459 
458 459 
459 461 
460 497 493 489 486 483 479 474 469 465 461 
462 463 
463 464 
464 465 
466 467 
467 468 
468 469 
470 472 
471 515 511 507 503 499 495 491 481 477 472 
472 473 
473 474 
475 512 508 504 500 496 492 488 485 482 478 
476 477 
477 478 
478 479 
480 481 
481 482 
482 483 
484 485 
485 486 
487 488 
488 489 
490 491 
491 492 
492 493 
494 495 
495 496 
496 497 
498 499 
499 500 
500 501 
502 503 
503 504 
504 505 
506 507 
507 508 
508 509 
510 511 
511 512 
512 513 
514 515 
515 516 
516 517 
518 519 
519 520 
520 521 
523 90 84 
524 75 
525 458 213 96 93 
526 235 166 165 
527 284 162 161 
528 304 150 148 
529 332 142 
530 353 154 153 
531 484 373 196 158 
532 94 
533 388 243 104 103 
534 395 109 100 99 
535 402 127 126 
536 412 123 122 
537 419 118 117 
538 428 115 113 
539 437 177 176 
540 453 172 171 
541 67 
542 218 167 55 
543 238 163 54 
544 287 149 62 
545 307 145 143 61 
546 335 155 60 
547 356 158 59 
548 240 66 
549 105 65 
550 101 64 
551 137 128 72 
552 124 71 
553 119 70 
554 114 69 
555 178 57 
556 440 173 56 
1 458 
2 462 
3 466 
4 470 
5 476 
6 480 
7 484 
8 214 
9 382 
10 389 
11 396 
12 487 
13 403 
14 413 
15 420 
16 429 
17 438 
18 454 
19 236 
20 285 
21 305 
22 333 
23 490 
24 354 
25 374 
26 494 
27 498 
28 502 
29 506 
30 510 
31 514 
32 518 
522 78 33 
34 89 81 
35 85 82 77 
93 205 36 
230 232 37 
280 281 38 
300 301 39 
328 329 40 
349 350 41 
369 370 42 
377 378 43 
384 385 44 
391 392 45 
398 399 46 
408 409 47 
415 416 48 
424 425 49 
433 434 50 
449 450 51 
52 85 
84 85 53 